RT is False
Default write of storage_offers_DA.csv just to have a file (but constraint should be inactive)
Reading model...
...model read.
creating competitive generators file...
...competitive generators recorded.
Loading data...
.. day-ahead data with real-time VRE data read.
Compiling instance...
...instance created.
Creating Offer Mitigation (model will solve as dispatch if TRUE)...
Solving...

Welcome to IBM(R) ILOG(R) CPLEX(R) Interactive Optimizer 12.8.0.0
  with Simplex, Mixed Integer & Barrier Optimizers
5725-A06 5725-A29 5724-Y48 5724-Y49 5724-Y54 5724-Y55 5655-Y21
Copyright IBM Corp. 1988, 2017.  All Rights Reserved.

Type 'help' for a list of available commands.
Type 'help' followed by a command name for more
information on commands.

CPLEX> Logfile 'cplex.log' closed.
Logfile 'C:\Users\llavi\Desktop\test919\logs\tmplj44_w78.cplex.log' open.
CPLEX> New value for parallel optimization mode: -1
CPLEX> New value for mixed integer optimality gap tolerance: 0.01
CPLEX> New value for integrality tolerance: 1e-09
CPLEX> New value for feasibility tolerance: 0.01
CPLEX> New value for deterministic time limit in ticks: 75000
CPLEX> Problem 'C:\Users\llavi\Desktop\test919\logs\tmpjt5e7d5c.pyomo.lp' read.
Read time = 0.26 sec. (3.03 ticks)
CPLEX> Problem name         : C:\Users\llavi\Desktop\test919\logs\tmpjt5e7d5c.pyomo.lp
Objective sense      : Minimize
Variables            :   26465  [Nneg: 1,  Box: 22000,  Free: 4464]
Objective nonzeros   :    2496
Linear constraints   :   27515  [Less: 14006,  Greater: 4416,  Equal: 9093]
  Nonzeros           :   89171
  RHS nonzeros       :   12270

Variables            : Min LB: -5000.000        Max UB: 1000000.       
Objective nonzeros   : Min   : 15.73158         Max   : 124.0997       
Linear constraints   :
  Nonzeros           : Min   : 0.8500000        Max   : 3000.000       
  RHS nonzeros       : Min   : 0.008333333      Max   : 5000.000       
CPLEX> CPXPARAM_Simplex_Tolerances_Feasibility          0.01
CPXPARAM_Parallel                                -1
CPXPARAM_DetTimeLimit                            75000
CPXPARAM_MIP_Tolerances_MIPGap                   0.01
CPXPARAM_MIP_Tolerances_Integrality              1.0000000000000001e-09
Parallel mode: opportunistic, using up to 4 threads for concurrent optimization.
Tried aggregator 1 time.
LP Presolve eliminated 21401 rows and 15895 columns.
Aggregator did 725 substitutions.
Reduced LP has 5389 rows, 9845 columns, and 31758 nonzeros.
Presolve time = 0.11 sec. (22.47 ticks)

Iteration log . . .
Iteration:     1   Dual objective     =             0.000000
Perturbation started.
Iteration:   101   Dual objective     =             0.000000
Iteration:   378   Dual objective     =             1.496780
Iteration:   644   Dual objective     =             2.035949
Iteration:   961   Dual objective     =             2.184408
Iteration:  1161   Dual objective     =             2.303409
Iteration:  1504   Dual objective     =             2.365483
Iteration:  1806   Dual objective     =             2.397230
Iteration:  2108   Dual objective     =         75554.967562
Iteration:  2402   Dual objective     =        126913.377958
Iteration:  2708   Dual objective     =        209750.620900
Iteration:  3077   Dual objective     =        209750.629956
Iteration:  3429   Dual objective     =        222830.064647
Iteration:  3727   Dual objective     =        239778.813384
Iteration:  4125   Dual objective     =        243004.131393
Removing perturbation.

Dual simplex solved model.


Dual simplex - Optimal:  Objective =  2.4379955716e+05
Solution time =    0.56 sec.  Iterations = 4524 (0)
Deterministic time = 95.24 ticks  (169.17 ticks/sec)

CPLEX> Solution written to file 'C:\Users\llavi\Desktop\test919\logs\tmpvvsc75i5.cplex.sol'.
CPLEX> Exporting results... 
...storage offer mitigation file created
Converting model to MPEC...
...converted
NOTE: initial MIP solve with only storage competitive to get feasible solution
Solving...

Welcome to IBM(R) ILOG(R) CPLEX(R) Interactive Optimizer 12.8.0.0
  with Simplex, Mixed Integer & Barrier Optimizers
5725-A06 5725-A29 5724-Y48 5724-Y49 5724-Y54 5724-Y55 5655-Y21
Copyright IBM Corp. 1988, 2017.  All Rights Reserved.

Type 'help' for a list of available commands.
Type 'help' followed by a command name for more
information on commands.

CPLEX> Logfile 'cplex.log' closed.
Logfile 'C:\Users\llavi\Desktop\test919\logs\tmp31w_dzy_.cplex.log' open.
CPLEX> New value for parallel optimization mode: -1
CPLEX> New value for mixed integer optimality gap tolerance: 0.01
CPLEX> New value for integrality tolerance: 1e-09
CPLEX> New value for feasibility tolerance: 0.01
CPLEX> New value for deterministic time limit in ticks: 75000
CPLEX> Problem 'C:\Users\llavi\Desktop\test919\logs\tmp29t4tfhr.pyomo.lp' read.
Read time = 0.70 sec. (13.96 ticks)
CPLEX> Problem name         : C:\Users\llavi\Desktop\test919\logs\tmp29t4tfhr.pyomo.lp
Objective sense      : Maximize
Variables            :   53805  [Nneg: 1,  Box: 22000,  Free: 4464,
                                 Binary: 27340]
Objective nonzeros   :    9077
Linear constraints   :  123205  [Less: 41346,  Greater: 59096,  Equal: 22763]
  Nonzeros           :  291704
  RHS nonzeros       :   67448

Variables            : Min LB: -5000.000        Max UB: 1000000.       
Objective nonzeros   : Min   : 0.008333333      Max   : 2500.000       
Linear constraints   :
  Nonzeros           : Min   : 0.008333333      Max   : 1000000.       
  RHS nonzeros       : Min   : 0.008333333      Max   : 1000000.       
CPLEX> CPXPARAM_Simplex_Tolerances_Feasibility          0.01
CPXPARAM_Parallel                                -1
CPXPARAM_DetTimeLimit                            75000
CPXPARAM_MIP_Tolerances_MIPGap                   0.01
CPXPARAM_MIP_Tolerances_Integrality              1.0000000000000001e-09
Tried aggregator 3 times.
MIP Presolve eliminated 88676 rows and 19024 columns.
MIP Presolve added 3354 rows and 0 columns.
MIP Presolve modified 23867 coefficients.
Aggregator did 12967 substitutions.
Reduced MIP has 24916 rows, 21258 columns, and 71020 nonzeros.
Reduced MIP has 8415 binaries, 0 generals, 0 SOSs, and 0 indicators.
Presolve time = 0.67 sec. (165.28 ticks)
Probing fixed 418 vars, tightened 2884 bounds.
Probing time = 5.69 sec. (905.18 ticks)
Tried aggregator 2 times.
MIP Presolve eliminated 939 rows and 836 columns.
MIP Presolve modified 2233 coefficients.
Aggregator did 42 substitutions.
Reduced MIP has 23935 rows, 20380 columns, and 68180 nonzeros.
Reduced MIP has 7997 binaries, 0 generals, 0 SOSs, and 0 indicators.
Presolve time = 0.30 sec. (54.23 ticks)
Probing time = 0.16 sec. (14.93 ticks)
Clique table members: 6565.
MIP emphasis: balance optimality and feasibility.
MIP search method: dynamic search.
Parallel mode: opportunistic, using up to 4 threads.
Root relaxation solution time = 0.80 sec. (484.20 ticks)

        Nodes                                         Cuts/
   Node  Left     Objective  IInf  Best Integer    Best Bound    ItCnt     Gap

      0     0      -36.6991   737                    -36.6991     3021         
      0     0      -36.9880     5                 Flowcuts: 2     3022         
      0     0      -36.9880     4                 Flowcuts: 6     3023         
      0     0      -36.9880     3                 Flowcuts: 6     3024         
      0     2      -36.9880     3                    -36.9880     3024         
Elapsed time = 27.34 sec. (4861.72 ticks, tree = 0.02 MB, solutions = 0)
     43    35     -182.9765     1                    -37.4240     3421         
     77    43    infeasible                          -37.4240     4016         
    103    52    -1784.6219     1                    -37.4240     4359         
    130    55    infeasible                          -37.4240     5155         
    150    56     -104.4529     2                    -37.4240     4331         
    175    56     -104.4529     2                    -37.4240     4511         
*   180    66      integral     0    -2673.4014      -37.4240     6121   98.60%
    195    56    infeasible          -2673.4014      -37.4240     4511   98.60%
    222    85    -1902.6225     3    -2673.4014      -37.4240     6232   98.60%
    245    62    infeasible          -2673.4014      -37.4240     5966   98.60%
    322    61     -104.4529     1    -2673.4014      -37.4240     6154   98.60%
Elapsed time = 37.34 sec. (8063.85 ticks, tree = 0.64 MB, solutions = 1)
    415   191     -191.1275   174    -2673.4014      -37.4240    12605   98.60%
    609   359     -191.1275     6    -2673.4014      -37.4240    12773   98.60%
*   617   160      integral     0     -191.1275      -37.4240    12779   80.42%
    689   179        cutoff           -191.1275      -37.4240    12612   80.42%
    735   111        cutoff           -191.1275      -37.4240    12939   80.42%
    793   112     -104.2144     1     -191.1275      -37.4240    12946   80.42%
    854   124     -104.4529     1     -191.1275      -37.4240    12971   80.42%
    910   150     -114.7160     1     -191.1275      -37.4240    13075   80.42%
    957   153        cutoff           -191.1275      -37.4240    13120   80.42%
    997   159        cutoff           -191.1275      -37.4240    13159   80.42%
Elapsed time = 58.19 sec. (17012.98 ticks, tree = 0.58 MB, solutions = 2)
   1030   161    infeasible           -191.1275      -37.4240    13185   80.42%
   1102   169     -104.2144     1     -191.1275      -37.4240    13263   80.42%
   1206   196     -182.9532   137     -191.1275      -37.4240    14532   80.42%
   1359   217     -182.9532    52     -191.1275      -37.4240    14996   80.42%
*  1418   192      integral     0     -182.9532      -37.4240    15048   79.54%
   1451   164        cutoff           -182.9532      -37.4240    21492   79.54%
   1625   235     -103.6766    44     -182.9532      -37.4240    21841   79.54%
*  1698   260      integral     0     -127.6128      -37.4240    21934   70.67%
   1819   244     -103.6766     9     -127.6128      -37.4240    22198   70.67%
*  1873   253      integral     0     -119.4384      -37.4240    22357   68.67%
Elapsed time = 78.92 sec. (25524.13 ticks, tree = 1.42 MB, solutions = 4)
   1926   233        cutoff           -119.4384      -37.4240    22454   68.67%
   1997   230     -103.6766    74     -119.4384      -37.4240    22762   68.67%
   2118   225        cutoff           -103.6766      -37.4240    22432   63.90%
   2171    16        cutoff           -103.6766      -37.4240    23136   63.90%
   2214   245     -106.9102     1     -103.6766      -37.4240    22879   63.90%
   2291    42      -37.4240     2     -103.6766      -37.4240    23108   63.90%
   2347    24      -37.4240     2     -103.6766      -37.4240    23369   63.90%
   2393    33      -37.4240     2     -103.6766      -37.4240    23400   63.90%
   2449    75      -37.4240     2     -103.6766      -37.4240    23532   63.90%
   2517    62        cutoff           -103.6766      -37.4240    23505   63.90%
Elapsed time = 103.64 sec. (35223.81 ticks, tree = 0.35 MB, solutions = 6)
   2565    36      -37.4240     1     -103.6766      -37.4240    23406   63.90%
   2616   133        cutoff           -103.6766      -37.4240    23746   63.90%
   2669    98      -41.4590     3     -103.6766      -37.4240    23601   63.90%
   2716   142      -37.4240     2     -103.6766      -37.4240    23778   63.90%
   2758   158      -37.4240     2     -103.6766      -37.4240    23859   63.90%
   2799   164      -37.4240     1     -103.6766      -37.4240    23886   63.90%
   2855   136        cutoff           -103.6766      -37.4240    23775   63.90%
   2897   141      -41.4590     1     -103.6766      -37.4240    23795   63.90%
   2947   175      -41.4590     3     -103.6766      -37.4240    23928   63.90%
   2977   176        cutoff           -103.6766      -37.4240    23932   63.90%
Elapsed time = 125.47 sec. (44942.49 ticks, tree = 0.83 MB, solutions = 6)
   3021   218        cutoff           -103.6766      -37.4240    24090   63.90%
   3054   231      -87.0750     1     -103.6766      -37.4240    24137   63.90%
   3086   230      -41.4590     1     -103.6766      -37.4240    24130   63.90%
   3112   235      -41.4590     1     -103.6766      -37.4240    24152   63.90%
   3133   236      -41.4590     1     -103.6766      -37.4240    24155   63.90%
   3168   258        cutoff           -103.6766      -37.4240    24283   63.90%
   3192   291        cutoff           -103.6766      -37.4240    24402   63.90%
   3213   294      -87.0750     1     -103.6766      -37.4240    24407   63.90%
   3235   272      -41.4590     3     -103.6766      -37.4240    24321   63.90%
   3260   275      -41.4590     1     -103.6766      -37.4240    24340   63.90%
Elapsed time = 146.61 sec. (54838.51 ticks, tree = 1.39 MB, solutions = 6)
   3289   302      -41.4590     1     -103.6766      -37.4240    24473   63.90%
   3313   294        cutoff           -103.6766      -37.4240    24422   63.90%
   3340   331      -41.4590     1     -103.6766      -37.4240    24574   63.90%
   3365   310        cutoff           -103.6766      -37.4240    24488   63.90%
   3385   339      -87.0750     1     -103.6766      -37.4240    24608   63.90%
   3412   326        cutoff           -103.6766      -37.4240    24532   63.90%
   3429   349      -41.4590     1     -103.6766      -37.4240    24647   63.90%
   3450   333      -41.4590     1     -103.6766      -37.4240    24580   63.90%
   3473   357      -87.0750     1     -103.6766      -37.4240    24678   63.90%
   3515   345      -41.4590     1     -103.6766      -37.4240    24624   63.90%
Elapsed time = 168.03 sec. (65311.45 ticks, tree = 1.82 MB, solutions = 6)
   3541   377      -43.9163     1     -103.6766      -37.4240    24769   63.90%
   3558   378      -43.9163     1     -103.6766      -37.4240    24775   63.90%
   3572   355      -41.4590     1     -103.6766      -37.4240    24666   63.90%
   3591   367      -41.4590     1     -103.6766      -37.4240    24698   63.90%
   3604   368      -41.4590     1     -103.6766      -37.4240    24711   63.90%
*  3605     0      integral     0     -103.6766                  29592     --- 

Cover cuts applied:  1
Implied bound cuts applied:  4
Flow cuts applied:  37
Mixed integer rounding cuts applied:  1
Gomory fractional cuts applied:  13

Root node processing (before b&c):
  Real time             =   26.92 sec. (4821.77 ticks)
Parallel b&c, 4 threads:
  Real time             =  153.73 sec. (67299.52 ticks)
  Sync time (average)   =    1.69 sec.
  Wait time (average)   =    0.01 sec.
                          ------------
Total (root+branch&cut) =  180.66 sec. (72121.28 ticks)

Solution pool: 6 solutions saved.

MIP - Integer optimal solution:  Objective = -1.0367664271e+02
Solution time =  180.67 sec.  Iterations = 29592  Nodes = 3605
Deterministic time = 72121.44 ticks  (399.19 ticks/sec)

CPLEX> Incumbent solution written to file 'C:\Users\llavi\Desktop\test919\logs\tmpzttsnler.cplex.sol'.
CPLEX> NOTE: no warmstart specified for MIP iteration, default behavior is true
NOTE: resolving with all competitive generators using storage-only solution to warmstart
Solving...

Welcome to IBM(R) ILOG(R) CPLEX(R) Interactive Optimizer 12.8.0.0
  with Simplex, Mixed Integer & Barrier Optimizers
5725-A06 5725-A29 5724-Y48 5724-Y49 5724-Y54 5724-Y55 5655-Y21
Copyright IBM Corp. 1988, 2017.  All Rights Reserved.

Type 'help' for a list of available commands.
Type 'help' followed by a command name for more
information on commands.

CPLEX> Logfile 'cplex.log' closed.
Logfile 'C:\Users\llavi\Desktop\test919\logs\tmpr4mtduqz.cplex.log' open.
CPLEX> New value for parallel optimization mode: -1
CPLEX> New value for mixed integer optimality gap tolerance: 0.01
CPLEX> New value for integrality tolerance: 1e-09
CPLEX> New value for feasibility tolerance: 0.01
CPLEX> New value for deterministic time limit in ticks: 75000
CPLEX> Problem 'C:\Users\llavi\Desktop\test919\logs\tmpzggcf0sq.pyomo.lp' read.
Read time = 0.63 sec. (13.98 ticks)
CPLEX> MIP start file 'C:\Users\llavi\Desktop\test919\logs\tmpa8_lhvwr.cplex.mst' read.
CPLEX> Problem name         : C:\Users\llavi\Desktop\test919\logs\tmpzggcf0sq.pyomo.lp
Objective sense      : Maximize
Variables            :   54525  [Nneg: 1,  Box: 22720,  Free: 4464,
                                 Binary: 27340]
Objective nonzeros   :    9773
Linear constraints   :  123205  [Less: 41346,  Greater: 59096,  Equal: 22763]
  Nonzeros           :  291704
  RHS nonzeros       :   67448

Variables            : Min LB: -5000.000        Max UB: 1000000.       
Objective nonzeros   : Min   : 0.008333333      Max   : 2500.000       
Linear constraints   :
  Nonzeros           : Min   : 0.008333333      Max   : 1000000.       
  RHS nonzeros       : Min   : 0.008333333      Max   : 1000000.       
CPLEX> CPXPARAM_Simplex_Tolerances_Feasibility          0.01
CPXPARAM_Parallel                                -1
CPXPARAM_DetTimeLimit                            75000
CPXPARAM_MIP_Tolerances_MIPGap                   0.01
CPXPARAM_MIP_Tolerances_Integrality              1.0000000000000001e-09
Warning:  No solution found from 1 MIP starts.
Retaining values of one MIP start for possible repair.
Tried aggregator 3 times.
MIP Presolve eliminated 88676 rows and 19744 columns.
MIP Presolve added 3354 rows and 0 columns.
MIP Presolve modified 23867 coefficients.
Aggregator did 12967 substitutions.
Reduced MIP has 24916 rows, 21258 columns, and 71020 nonzeros.
Reduced MIP has 8415 binaries, 0 generals, 0 SOSs, and 0 indicators.
Presolve time = 0.56 sec. (165.64 ticks)
Probing fixed 418 vars, tightened 2884 bounds.
Probing time = 5.23 sec. (905.18 ticks)
Tried aggregator 2 times.
MIP Presolve eliminated 939 rows and 836 columns.
MIP Presolve modified 2233 coefficients.
Aggregator did 42 substitutions.
Reduced MIP has 23935 rows, 20380 columns, and 68180 nonzeros.
Reduced MIP has 7997 binaries, 0 generals, 0 SOSs, and 0 indicators.
Presolve time = 0.36 sec. (54.21 ticks)
Probing time = 0.11 sec. (14.93 ticks)
Clique table members: 6565.
MIP emphasis: balance optimality and feasibility.
MIP search method: dynamic search.
Parallel mode: opportunistic, using up to 4 threads.
Root relaxation solution time = 1.02 sec. (211.66 ticks)

        Nodes                                         Cuts/
   Node  Left     Objective  IInf  Best Integer    Best Bound    ItCnt     Gap

      0     0   123184.4237  1851                 123184.4237     3590         
      0     0   120981.4823   718                   Cuts: 824     4010         
      0     0   120468.9756   577                   Cuts: 510     4211         
      0     0   120153.0130   549                   Cuts: 269     4339         
      0     0   119924.9924   497                   Cuts: 194     4429         
      0     0   119892.9571   474                   Cuts: 155     4474         
      0     0   119890.6690   465                    Cuts: 60     4492         
      0     0   119890.6690   456                    Cuts: 48     4507         
      0     0   119890.6690   444                    Cuts: 34     4517         
      0     0   119890.6690   442                    Cuts: 25     4519         
      0     0   119890.6690   442                    Cuts: 22     4520         
Repair heuristic found nothing.
      0     2   119890.6690   442                 118583.0842     4521         
Elapsed time = 70.53 sec. (15526.43 ticks, tree = 0.03 MB, solutions = 0)
     50    31   105698.7706   370                 117663.0258     5491         
     96    88    95413.0503   336                 117663.0258     6726         
    154   124    83433.6404   311                 117663.0258     7738         
    215   179    89188.4074   334                 117663.0258     8703         
    277   203    48117.2096   298                 117663.0258     9108         
    377   310    47739.2882   238                 117663.0258     9984         
    457   334    41654.1571   229                 117663.0258    10175         
    539   458    82361.1498   235                 117663.0258    11325         
    669   565    44664.0537   217                 117663.0258    11711         
   1188  1061    93546.5252   379                 117663.0258    13055         
Elapsed time = 80.50 sec. (18672.21 ticks, tree = 19.97 MB, solutions = 0)
   1538  1341    72654.0999   285                 117663.0258    15443         
   1780  1544    83908.6423   217                 117663.0258    15967         
*  1972  1504      integral     0    82706.1720   117663.0258    16382   42.27%
   2177   555        cutoff          82706.1720   117663.0258    18876   42.27%
   2428   667    92849.2756   328    82706.1720   117663.0258    19320   42.27%
   2557   500    92131.3995   383    82706.1720   115858.0106    20061   40.08%
   2681   938        cutoff          82706.1720    96946.1674    32040   17.22%
   2829    92    85446.7162   140    82706.1720    95508.7828    32966   15.48%
   2938   233    89458.5262   188    82706.1720    95508.7828    35052   15.48%
   3082   303    82847.2826   161    82706.1720    95437.7843    36321   15.39%
Elapsed time = 147.53 sec. (34626.76 ticks, tree = 4.61 MB, solutions = 1)
   3323   467    83088.5709   160    82706.1720    95082.2407    39224   14.96%
   3583   514    83345.1051   161    82706.1720    94953.2109    40059   14.81%
   3889   864    83763.4311    83    82706.1720    94525.4500    44160   14.29%
   3941   985    83763.4311    79    82706.1720    94525.4500    45234   14.29%
   4143  1011    85740.2953   136    82706.1720    94514.0650    45305   14.28%
   4398  1214    84423.8206   166    82706.1720    94401.3119    48166   14.14%
   4691  1307    82842.7342    96    82706.1720    94401.3119    48621   14.14%
   4967  1592    92142.6247   193    82706.1720    94267.2240    52979   13.98%
   5141  1756    82912.7493   153    82706.1720    94146.6465    55542   13.83%
   5199  1877    85456.7658   214    82706.1720    93897.1679    59171   13.53%
Elapsed time = 189.42 sec. (44215.68 ticks, tree = 18.83 MB, solutions = 1)
   5353  1957    84709.0469   167    82706.1720    93637.2120    62638   13.22%
   5578  2009    85881.0001   162    82706.1720    93637.2120    63363   13.22%
   5801  2138        cutoff          82706.1720    93342.8102    70077   12.86%
   6068  2234        cutoff          82706.1720    92974.9564    73943   12.42%
   6295  2368    87881.6667   168    82706.1720    92637.8634    79301   12.01%
   6375  2390        cutoff          82706.1720    92572.6072    82925   11.93%
   6515  2435    91576.8080   201    82706.1720    92453.4693    84706   11.79%
   6733  2502    90142.9362   175    82706.1720    92259.9847    89538   11.55%
   7007  2649        cutoff          82706.1720    91948.7511    94384   11.18%
   7216  2826    88988.3007   187    82706.1720    91620.3035    99412   10.78%
Elapsed time = 228.05 sec. (53786.56 ticks, tree = 28.13 MB, solutions = 1)
   7459  2877    83162.5123   135    82706.1720    91326.3470   100435   10.42%
   7542  2990    84962.8946   188    82706.1720    91251.8541   103680   10.33%
   7713  3042    82827.6187   161    82706.1720    91221.6492   104352   10.30%
   7995  3093    82848.8626   147    82706.1720    91066.3416   107256   10.11%
   8253  3270    82854.9377   153    82706.1720    90770.9106   114720    9.75%
   8545  3413    84250.0494   175    82706.1720    90677.4259   117900    9.64%
   8863  3559    85658.7885   173    82706.1720    90502.0287   121528    9.43%
   9142  3663    84297.6268   172    82706.1720    90459.3640   124655    9.37%
   9192  3730    88112.6980   152    82706.1720    90376.8033   127361    9.27%
   9343  3831    88633.2347   199    82706.1720    90240.2752   130373    9.11%
Elapsed time = 268.19 sec. (63662.07 ticks, tree = 37.99 MB, solutions = 1)
   9563  3827    88563.9884   210    82706.1720    90174.9244   131883    9.03%
   9807  3883    89000.2022   212    82706.1720    90064.0852   134872    8.90%
  10066  3905    86386.1539   179    82706.1720    89976.5738   138837    8.79%
  10297  4021    82796.1752   163    82706.1720    89908.2667   148552    8.71%
  10550  4120        cutoff          82706.1720    89761.4665   154625    8.53%
  10662  4136    85623.3842   128    82706.1720    89761.4665   159633    8.53%
  10826  4149    84685.6789   190    82706.1720    89553.0563   160626    8.28%
  11156  4392    84949.8085   125    82706.1720    89441.3797   166125    8.14%
  11414  4450    85631.3089   188    82706.1720    89389.2548   172050    8.08%
  11591  4518    85026.0095   197    82706.1720    89231.3654   174509    7.89%
Elapsed time = 309.84 sec. (73220.92 ticks, tree = 45.74 MB, solutions = 1)
  11625  4623    82988.5492   163    82706.1720    89190.2194   181871    7.84%

GUB cover cuts applied:  4
Clique cuts applied:  46
Cover cuts applied:  17
Implied bound cuts applied:  105
Flow cuts applied:  2591
Mixed integer rounding cuts applied:  407
Zero-half cuts applied:  1
Gomory fractional cuts applied:  91

Root node processing (before b&c):
  Real time             =   70.06 sec. (15477.19 ticks)
Parallel b&c, 4 threads:
  Real time             =  243.48 sec. (59531.68 ticks)
  Sync time (average)   =    1.14 sec.
  Wait time (average)   =    0.05 sec.
                          ------------
Total (root+branch&cut) =  313.55 sec. (75008.86 ticks)

Solution pool: 1 solution saved.

MIP - Deterministic time limit exceeded, integer feasible:  Objective =  8.2706172028e+04
Current MIP best bound =  8.9098442625e+04 (gap = 6392.27, 7.73%)
Solution time =  313.55 sec.  Iterations = 183981  Nodes = 11683 (4642)
Deterministic time = 75009.02 ticks  (239.23 ticks/sec)

CPLEX> Incumbent solution written to file 'C:\Users\llavi\Desktop\test919\logs\tmpt6s0mio4.cplex.sol'.
CPLEX> Exporting results... 
